language ESSENCE' 1.0

letting fixed be 
[
    [0,2,4,1,0,0,6,7,0],
    [0,6,0,0,7,0,4,1,0],
    [7,0,0,9,6,4,0,2,0],
    [2,4,6,5,9,1,3,8,7],
    [1,3,5,4,8,7,2,9,6],
    [8,7,9,6,2,3,1,5,4],
    [4,0,0,0,0,9,7,6,0],
    [3,5,0,7,1,6,9,4,0],
    [6,9,7,0,4,0,0,3,1]
]